[2026-03-24T00:34:05.509Z] Pipeline "set_set_set_s007_g006" → 2026_03_24_00_34_05_set_set_set_s007_g006_max.sol
Set parameter WLSAccessID
Set parameter WLSSecret
Set parameter LicenseID to value 2792458
Set parameter LogFile to value "gurobi.log"
Using license file /root/gurobi.lic
Academic license 2792458 - for non-commercial use only - registered to an___@studenti.unipg.it

Gurobi Optimizer version 13.0.1 build v13.0.1rc0 (linux64 - "Ubuntu 24.04.4 LTS")
Copyright (c) 2026, Gurobi Optimization, LLC

Warning: Duplicate section found (read 'binary') - Is a variable name equal to an LP file format keyword?
Warning: Duplicate section found (read 'binary') - Is a variable name equal to an LP file format keyword?
Warning: Duplicate section found (read 'binary') - Is a variable name equal to an LP file format keyword?
Warning: Duplicate section found (read 'binary') - Is a variable name equal to an LP file format keyword?
Warning: Duplicate section found (read 'binary') - Is a variable name equal to an LP file format keyword?
Warning: Duplicate section found (read 'binary') - Is a variable name equal to an LP file format keyword?
Warning: Duplicate section found (read 'binary') - Is a variable name equal to an LP file format keyword?
Warning: Duplicate section found (read 'binary') - Is a variable name equal to an LP file format keyword?
Warning: Duplicate section found (read 'binary') - Is a variable name equal to an LP file format keyword?
Warning: Duplicate section found (read 'binary') - Is a variable name equal to an LP file format keyword?
Warning: Further warnings of this type will be omitted.
Read LP format model from file /root/bgw/data/uploads/2026_03_24_00_34_05_set_set_set_s007_g006_max.lp
Reading time = 0.00 seconds
: 659 rows, 118 columns, 1906 nonzeros

Using Gurobi shared library /opt/gurobi1301/linux64/lib/libgurobi.so.13.0.1

CPU model: AMD EPYC-Genoa Processor, instruction set [SSE2|AVX|AVX2|AVX512]
Thread count: 16 physical cores, 16 logical processors, using up to 16 threads

Academic license 2792458 - for non-commercial use only - registered to an___@studenti.unipg.it
Optimize a model with 659 rows, 118 columns and 1906 nonzeros (Max)
Model fingerprint: 0x896464c0
Model has 11 linear objective coefficients
Variable types: 23 continuous, 95 integer (95 binary)
Coefficient statistics:
  Matrix range     [1e+00, 1e+01]
  Objective range  [1e+00, 1e+00]
  Bounds range     [1e+00, 1e+00]
  RHS range        [1e+00, 1e+01]

Found heuristic solution: objective 11.0000000
Presolve removed 186 rows and 32 columns
Presolve time: 0.01s
Presolved: 473 rows, 86 columns, 1482 nonzeros
Variable types: 0 continuous, 86 integer (79 binary)
Found heuristic solution: objective 23.0000000

Root relaxation: objective 5.000000e+01, 48 iterations, 0.00 seconds (0.00 work units)

    Nodes    |    Current Node    |     Objective Bounds      |     Work
 Expl Unexpl |  Obj  Depth IntInf | Incumbent    BestBd   Gap | It/Node Time

     0     0   50.00000    0   22   23.00000   50.00000   117%     -    0s
H    0     0                      24.0000000   50.00000   108%     -    0s
H    0     0                      25.0000000   50.00000   100%     -    0s
H    0     0                      28.0000000   50.00000  78.6%     -    0s
H    0     0                      30.0000000   50.00000  66.7%     -    0s
     0     0   50.00000    0   26   30.00000   50.00000  66.7%     -    0s
H    0     0                      31.0000000   50.00000  61.3%     -    0s
     0     0   50.00000    0   26   31.00000   50.00000  61.3%     -    0s
     0     0   50.00000    0   21   31.00000   50.00000  61.3%     -    0s
     0     0   50.00000    0   25   31.00000   50.00000  61.3%     -    0s
     0     0   50.00000    0   23   31.00000   50.00000  61.3%     -    0s
     0     0   50.00000    0   25   31.00000   50.00000  61.3%     -    0s
     0     0   50.00000    0   25   31.00000   50.00000  61.3%     -    0s
     0     0   50.00000    0   25   31.00000   50.00000  61.3%     -    0s
     0     0   50.00000    0   21   31.00000   50.00000  61.3%     -    0s
     0     0   49.90000    0   24   31.00000   49.90000  61.0%     -    0s
     0     0   49.90000    0   21   31.00000   49.90000  61.0%     -    0s
     0     0   49.50000    0   21   31.00000   49.50000  59.7%     -    0s
     0     0   49.50000    0   21   31.00000   49.50000  59.7%     -    0s
     0     2   49.00000    0   21   31.00000   49.00000  58.1%     -    0s

Cutting planes:
  Cover: 9
  Inf proof: 22

Explored 1919 nodes (36564 simplex iterations) in 0.31 seconds (0.28 work units)
Thread count was 16 (of 16 available processors)

Solution count 7: 31 30 28 ... 11

Optimal solution found (tolerance 1.00e-04)
Best objective 3.100000000000e+01, best bound 3.100000000000e+01, gap 0.0000%

Wrote result file '/root/bgw/data/results/2026_03_24_00_34_05_set_set_set_s007_g006_max.sol'

